% Auto-generated by scripts/generate_dzn.py
% problem_type   = polyominoes
% instance       = polyominoes_70
% source_json    = instances_json/0_low_blowup/polyominoes_70.json
% blowup         = 0.6522911051212938
% representation = NFA

mode = 1;

size = 6;
tiles = 4;
n_expressions = 4;
Q = 169;
S = 5;
q0 = [1, 1, 1, 1];
F = [{10}, {24}, {19}, {24}];
weights = [6, 2, 2, 3, 8, 2, 1, 3, 3, 1, 6, 4, 8, 3, 2, 3, 9, 5, 2, 6, 10, 7, 1, 4, 8, 4, 10, 1, 3, 9, 10, 8, 8, 4, 1, 3];
d_dfa = array3d(1..4, 1..169, 1..5, [
  % k = 1
    0, 0, 0, 0, 0,
    0, 0, 0, 0, 0,
    0, 0, 0, 0, 0,
    0, 0, 0, 0, 0,
    0, 0, 0, 0, 0,
    0, 0, 0, 0, 0,
    0, 0, 0, 0, 0,
    0, 0, 0, 0, 0,
    0, 0, 0, 0, 0,
    0, 0, 0, 0, 0,
    0, 0, 0, 0, 0,
    0, 0, 0, 0, 0,
    0, 0, 0, 0, 0,
    0, 0, 0, 0, 0,
    0, 0, 0, 0, 0,
    0, 0, 0, 0, 0,
    0, 0, 0, 0, 0,
    0, 0, 0, 0, 0,
    0, 0, 0, 0, 0,
    0, 0, 0, 0, 0,
    0, 0, 0, 0, 0,
    0, 0, 0, 0, 0,
    0, 0, 0, 0, 0,
    0, 0, 0, 0, 0,
    0, 0, 0, 0, 0,
    0, 0, 0, 0, 0,
    0, 0, 0, 0, 0,
    0, 0, 0, 0, 0,
    0, 0, 0, 0, 0,
    0, 0, 0, 0, 0,
    0, 0, 0, 0, 0,
    0, 0, 0, 0, 0,
    0, 0, 0, 0, 0,
    0, 0, 0, 0, 0,
    0, 0, 0, 0, 0,
    0, 0, 0, 0, 0,
    0, 0, 0, 0, 0,
    0, 0, 0, 0, 0,
    0, 0, 0, 0, 0,
    0, 0, 0, 0, 0,
    0, 0, 0, 0, 0,
    0, 0, 0, 0, 0,
    0, 0, 0, 0, 0,
    0, 0, 0, 0, 0,
    0, 0, 0, 0, 0,
    0, 0, 0, 0, 0,
    0, 0, 0, 0, 0,
    0, 0, 0, 0, 0,
    0, 0, 0, 0, 0,
    0, 0, 0, 0, 0,
    0, 0, 0, 0, 0,
    0, 0, 0, 0, 0,
    0, 0, 0, 0, 0,
    0, 0, 0, 0, 0,
    0, 0, 0, 0, 0,
    0, 0, 0, 0, 0,
    0, 0, 0, 0, 0,
    0, 0, 0, 0, 0,
    0, 0, 0, 0, 0,
    0, 0, 0, 0, 0,
    0, 0, 0, 0, 0,
    0, 0, 0, 0, 0,
    0, 0, 0, 0, 0,
    0, 0, 0, 0, 0,
    0, 0, 0, 0, 0,
    0, 0, 0, 0, 0,
    0, 0, 0, 0, 0,
    0, 0, 0, 0, 0,
    0, 0, 0, 0, 0,
    0, 0, 0, 0, 0,
    0, 0, 0, 0, 0,
    0, 0, 0, 0, 0,
    0, 0, 0, 0, 0,
    0, 0, 0, 0, 0,
    0, 0, 0, 0, 0,
    0, 0, 0, 0, 0,
    0, 0, 0, 0, 0,
    0, 0, 0, 0, 0,
    0, 0, 0, 0, 0,
    0, 0, 0, 0, 0,
    0, 0, 0, 0, 0,
    0, 0, 0, 0, 0,
    0, 0, 0, 0, 0,
    0, 0, 0, 0, 0,
    0, 0, 0, 0, 0,
    0, 0, 0, 0, 0,
    0, 0, 0, 0, 0,
    0, 0, 0, 0, 0,
    0, 0, 0, 0, 0,
    0, 0, 0, 0, 0,
    0, 0, 0, 0, 0,
    0, 0, 0, 0, 0,
    0, 0, 0, 0, 0,
    0, 0, 0, 0, 0,
    0, 0, 0, 0, 0,
    0, 0, 0, 0, 0,
    0, 0, 0, 0, 0,
    0, 0, 0, 0, 0,
    0, 0, 0, 0, 0,
    0, 0, 0, 0, 0,
    0, 0, 0, 0, 0,
    0, 0, 0, 0, 0,
    0, 0, 0, 0, 0,
    0, 0, 0, 0, 0,
    0, 0, 0, 0, 0,
    0, 0, 0, 0, 0,
    0, 0, 0, 0, 0,
    0, 0, 0, 0, 0,
    0, 0, 0, 0, 0,
    0, 0, 0, 0, 0,
    0, 0, 0, 0, 0,
    0, 0, 0, 0, 0,
    0, 0, 0, 0, 0,
    0, 0, 0, 0, 0,
    0, 0, 0, 0, 0,
    0, 0, 0, 0, 0,
    0, 0, 0, 0, 0,
    0, 0, 0, 0, 0,
    0, 0, 0, 0, 0,
    0, 0, 0, 0, 0,
    0, 0, 0, 0, 0,
    0, 0, 0, 0, 0,
    0, 0, 0, 0, 0,
    0, 0, 0, 0, 0,
    0, 0, 0, 0, 0,
    0, 0, 0, 0, 0,
    0, 0, 0, 0, 0,
    0, 0, 0, 0, 0,
    0, 0, 0, 0, 0,
    0, 0, 0, 0, 0,
    0, 0, 0, 0, 0,
    0, 0, 0, 0, 0,
    0, 0, 0, 0, 0,
    0, 0, 0, 0, 0,
    0, 0, 0, 0, 0,
    0, 0, 0, 0, 0,
    0, 0, 0, 0, 0,
    0, 0, 0, 0, 0,
    0, 0, 0, 0, 0,
    0, 0, 0, 0, 0,
    0, 0, 0, 0, 0,
    0, 0, 0, 0, 0,
    0, 0, 0, 0, 0,
    0, 0, 0, 0, 0,
    0, 0, 0, 0, 0,
    0, 0, 0, 0, 0,
    0, 0, 0, 0, 0,
    0, 0, 0, 0, 0,
    0, 0, 0, 0, 0,
    0, 0, 0, 0, 0,
    0, 0, 0, 0, 0,
    0, 0, 0, 0, 0,
    0, 0, 0, 0, 0,
    0, 0, 0, 0, 0,
    0, 0, 0, 0, 0,
    0, 0, 0, 0, 0,
    0, 0, 0, 0, 0,
    0, 0, 0, 0, 0,
    0, 0, 0, 0, 0,
    0, 0, 0, 0, 0,
    0, 0, 0, 0, 0,
    0, 0, 0, 0, 0,
    0, 0, 0, 0, 0,
    0, 0, 0, 0, 0,
    0, 0, 0, 0, 0,
    0, 0, 0, 0, 0,
    0, 0, 0, 0, 0,
    0, 0, 0, 0, 0,
    0, 0, 0, 0, 0,

  % k = 2
    0, 0, 0, 0, 0,
    0, 0, 0, 0, 0,
    0, 0, 0, 0, 0,
    0, 0, 0, 0, 0,
    0, 0, 0, 0, 0,
    0, 0, 0, 0, 0,
    0, 0, 0, 0, 0,
    0, 0, 0, 0, 0,
    0, 0, 0, 0, 0,
    0, 0, 0, 0, 0,
    0, 0, 0, 0, 0,
    0, 0, 0, 0, 0,
    0, 0, 0, 0, 0,
    0, 0, 0, 0, 0,
    0, 0, 0, 0, 0,
    0, 0, 0, 0, 0,
    0, 0, 0, 0, 0,
    0, 0, 0, 0, 0,
    0, 0, 0, 0, 0,
    0, 0, 0, 0, 0,
    0, 0, 0, 0, 0,
    0, 0, 0, 0, 0,
    0, 0, 0, 0, 0,
    0, 0, 0, 0, 0,
    0, 0, 0, 0, 0,
    0, 0, 0, 0, 0,
    0, 0, 0, 0, 0,
    0, 0, 0, 0, 0,
    0, 0, 0, 0, 0,
    0, 0, 0, 0, 0,
    0, 0, 0, 0, 0,
    0, 0, 0, 0, 0,
    0, 0, 0, 0, 0,
    0, 0, 0, 0, 0,
    0, 0, 0, 0, 0,
    0, 0, 0, 0, 0,
    0, 0, 0, 0, 0,
    0, 0, 0, 0, 0,
    0, 0, 0, 0, 0,
    0, 0, 0, 0, 0,
    0, 0, 0, 0, 0,
    0, 0, 0, 0, 0,
    0, 0, 0, 0, 0,
    0, 0, 0, 0, 0,
    0, 0, 0, 0, 0,
    0, 0, 0, 0, 0,
    0, 0, 0, 0, 0,
    0, 0, 0, 0, 0,
    0, 0, 0, 0, 0,
    0, 0, 0, 0, 0,
    0, 0, 0, 0, 0,
    0, 0, 0, 0, 0,
    0, 0, 0, 0, 0,
    0, 0, 0, 0, 0,
    0, 0, 0, 0, 0,
    0, 0, 0, 0, 0,
    0, 0, 0, 0, 0,
    0, 0, 0, 0, 0,
    0, 0, 0, 0, 0,
    0, 0, 0, 0, 0,
    0, 0, 0, 0, 0,
    0, 0, 0, 0, 0,
    0, 0, 0, 0, 0,
    0, 0, 0, 0, 0,
    0, 0, 0, 0, 0,
    0, 0, 0, 0, 0,
    0, 0, 0, 0, 0,
    0, 0, 0, 0, 0,
    0, 0, 0, 0, 0,
    0, 0, 0, 0, 0,
    0, 0, 0, 0, 0,
    0, 0, 0, 0, 0,
    0, 0, 0, 0, 0,
    0, 0, 0, 0, 0,
    0, 0, 0, 0, 0,
    0, 0, 0, 0, 0,
    0, 0, 0, 0, 0,
    0, 0, 0, 0, 0,
    0, 0, 0, 0, 0,
    0, 0, 0, 0, 0,
    0, 0, 0, 0, 0,
    0, 0, 0, 0, 0,
    0, 0, 0, 0, 0,
    0, 0, 0, 0, 0,
    0, 0, 0, 0, 0,
    0, 0, 0, 0, 0,
    0, 0, 0, 0, 0,
    0, 0, 0, 0, 0,
    0, 0, 0, 0, 0,
    0, 0, 0, 0, 0,
    0, 0, 0, 0, 0,
    0, 0, 0, 0, 0,
    0, 0, 0, 0, 0,
    0, 0, 0, 0, 0,
    0, 0, 0, 0, 0,
    0, 0, 0, 0, 0,
    0, 0, 0, 0, 0,
    0, 0, 0, 0, 0,
    0, 0, 0, 0, 0,
    0, 0, 0, 0, 0,
    0, 0, 0, 0, 0,
    0, 0, 0, 0, 0,
    0, 0, 0, 0, 0,
    0, 0, 0, 0, 0,
    0, 0, 0, 0, 0,
    0, 0, 0, 0, 0,
    0, 0, 0, 0, 0,
    0, 0, 0, 0, 0,
    0, 0, 0, 0, 0,
    0, 0, 0, 0, 0,
    0, 0, 0, 0, 0,
    0, 0, 0, 0, 0,
    0, 0, 0, 0, 0,
    0, 0, 0, 0, 0,
    0, 0, 0, 0, 0,
    0, 0, 0, 0, 0,
    0, 0, 0, 0, 0,
    0, 0, 0, 0, 0,
    0, 0, 0, 0, 0,
    0, 0, 0, 0, 0,
    0, 0, 0, 0, 0,
    0, 0, 0, 0, 0,
    0, 0, 0, 0, 0,
    0, 0, 0, 0, 0,
    0, 0, 0, 0, 0,
    0, 0, 0, 0, 0,
    0, 0, 0, 0, 0,
    0, 0, 0, 0, 0,
    0, 0, 0, 0, 0,
    0, 0, 0, 0, 0,
    0, 0, 0, 0, 0,
    0, 0, 0, 0, 0,
    0, 0, 0, 0, 0,
    0, 0, 0, 0, 0,
    0, 0, 0, 0, 0,
    0, 0, 0, 0, 0,
    0, 0, 0, 0, 0,
    0, 0, 0, 0, 0,
    0, 0, 0, 0, 0,
    0, 0, 0, 0, 0,
    0, 0, 0, 0, 0,
    0, 0, 0, 0, 0,
    0, 0, 0, 0, 0,
    0, 0, 0, 0, 0,
    0, 0, 0, 0, 0,
    0, 0, 0, 0, 0,
    0, 0, 0, 0, 0,
    0, 0, 0, 0, 0,
    0, 0, 0, 0, 0,
    0, 0, 0, 0, 0,
    0, 0, 0, 0, 0,
    0, 0, 0, 0, 0,
    0, 0, 0, 0, 0,
    0, 0, 0, 0, 0,
    0, 0, 0, 0, 0,
    0, 0, 0, 0, 0,
    0, 0, 0, 0, 0,
    0, 0, 0, 0, 0,
    0, 0, 0, 0, 0,
    0, 0, 0, 0, 0,
    0, 0, 0, 0, 0,
    0, 0, 0, 0, 0,
    0, 0, 0, 0, 0,
    0, 0, 0, 0, 0,
    0, 0, 0, 0, 0,
    0, 0, 0, 0, 0,
    0, 0, 0, 0, 0,
    0, 0, 0, 0, 0,
    0, 0, 0, 0, 0,

  % k = 3
    0, 0, 0, 0, 0,
    0, 0, 0, 0, 0,
    0, 0, 0, 0, 0,
    0, 0, 0, 0, 0,
    0, 0, 0, 0, 0,
    0, 0, 0, 0, 0,
    0, 0, 0, 0, 0,
    0, 0, 0, 0, 0,
    0, 0, 0, 0, 0,
    0, 0, 0, 0, 0,
    0, 0, 0, 0, 0,
    0, 0, 0, 0, 0,
    0, 0, 0, 0, 0,
    0, 0, 0, 0, 0,
    0, 0, 0, 0, 0,
    0, 0, 0, 0, 0,
    0, 0, 0, 0, 0,
    0, 0, 0, 0, 0,
    0, 0, 0, 0, 0,
    0, 0, 0, 0, 0,
    0, 0, 0, 0, 0,
    0, 0, 0, 0, 0,
    0, 0, 0, 0, 0,
    0, 0, 0, 0, 0,
    0, 0, 0, 0, 0,
    0, 0, 0, 0, 0,
    0, 0, 0, 0, 0,
    0, 0, 0, 0, 0,
    0, 0, 0, 0, 0,
    0, 0, 0, 0, 0,
    0, 0, 0, 0, 0,
    0, 0, 0, 0, 0,
    0, 0, 0, 0, 0,
    0, 0, 0, 0, 0,
    0, 0, 0, 0, 0,
    0, 0, 0, 0, 0,
    0, 0, 0, 0, 0,
    0, 0, 0, 0, 0,
    0, 0, 0, 0, 0,
    0, 0, 0, 0, 0,
    0, 0, 0, 0, 0,
    0, 0, 0, 0, 0,
    0, 0, 0, 0, 0,
    0, 0, 0, 0, 0,
    0, 0, 0, 0, 0,
    0, 0, 0, 0, 0,
    0, 0, 0, 0, 0,
    0, 0, 0, 0, 0,
    0, 0, 0, 0, 0,
    0, 0, 0, 0, 0,
    0, 0, 0, 0, 0,
    0, 0, 0, 0, 0,
    0, 0, 0, 0, 0,
    0, 0, 0, 0, 0,
    0, 0, 0, 0, 0,
    0, 0, 0, 0, 0,
    0, 0, 0, 0, 0,
    0, 0, 0, 0, 0,
    0, 0, 0, 0, 0,
    0, 0, 0, 0, 0,
    0, 0, 0, 0, 0,
    0, 0, 0, 0, 0,
    0, 0, 0, 0, 0,
    0, 0, 0, 0, 0,
    0, 0, 0, 0, 0,
    0, 0, 0, 0, 0,
    0, 0, 0, 0, 0,
    0, 0, 0, 0, 0,
    0, 0, 0, 0, 0,
    0, 0, 0, 0, 0,
    0, 0, 0, 0, 0,
    0, 0, 0, 0, 0,
    0, 0, 0, 0, 0,
    0, 0, 0, 0, 0,
    0, 0, 0, 0, 0,
    0, 0, 0, 0, 0,
    0, 0, 0, 0, 0,
    0, 0, 0, 0, 0,
    0, 0, 0, 0, 0,
    0, 0, 0, 0, 0,
    0, 0, 0, 0, 0,
    0, 0, 0, 0, 0,
    0, 0, 0, 0, 0,
    0, 0, 0, 0, 0,
    0, 0, 0, 0, 0,
    0, 0, 0, 0, 0,
    0, 0, 0, 0, 0,
    0, 0, 0, 0, 0,
    0, 0, 0, 0, 0,
    0, 0, 0, 0, 0,
    0, 0, 0, 0, 0,
    0, 0, 0, 0, 0,
    0, 0, 0, 0, 0,
    0, 0, 0, 0, 0,
    0, 0, 0, 0, 0,
    0, 0, 0, 0, 0,
    0, 0, 0, 0, 0,
    0, 0, 0, 0, 0,
    0, 0, 0, 0, 0,
    0, 0, 0, 0, 0,
    0, 0, 0, 0, 0,
    0, 0, 0, 0, 0,
    0, 0, 0, 0, 0,
    0, 0, 0, 0, 0,
    0, 0, 0, 0, 0,
    0, 0, 0, 0, 0,
    0, 0, 0, 0, 0,
    0, 0, 0, 0, 0,
    0, 0, 0, 0, 0,
    0, 0, 0, 0, 0,
    0, 0, 0, 0, 0,
    0, 0, 0, 0, 0,
    0, 0, 0, 0, 0,
    0, 0, 0, 0, 0,
    0, 0, 0, 0, 0,
    0, 0, 0, 0, 0,
    0, 0, 0, 0, 0,
    0, 0, 0, 0, 0,
    0, 0, 0, 0, 0,
    0, 0, 0, 0, 0,
    0, 0, 0, 0, 0,
    0, 0, 0, 0, 0,
    0, 0, 0, 0, 0,
    0, 0, 0, 0, 0,
    0, 0, 0, 0, 0,
    0, 0, 0, 0, 0,
    0, 0, 0, 0, 0,
    0, 0, 0, 0, 0,
    0, 0, 0, 0, 0,
    0, 0, 0, 0, 0,
    0, 0, 0, 0, 0,
    0, 0, 0, 0, 0,
    0, 0, 0, 0, 0,
    0, 0, 0, 0, 0,
    0, 0, 0, 0, 0,
    0, 0, 0, 0, 0,
    0, 0, 0, 0, 0,
    0, 0, 0, 0, 0,
    0, 0, 0, 0, 0,
    0, 0, 0, 0, 0,
    0, 0, 0, 0, 0,
    0, 0, 0, 0, 0,
    0, 0, 0, 0, 0,
    0, 0, 0, 0, 0,
    0, 0, 0, 0, 0,
    0, 0, 0, 0, 0,
    0, 0, 0, 0, 0,
    0, 0, 0, 0, 0,
    0, 0, 0, 0, 0,
    0, 0, 0, 0, 0,
    0, 0, 0, 0, 0,
    0, 0, 0, 0, 0,
    0, 0, 0, 0, 0,
    0, 0, 0, 0, 0,
    0, 0, 0, 0, 0,
    0, 0, 0, 0, 0,
    0, 0, 0, 0, 0,
    0, 0, 0, 0, 0,
    0, 0, 0, 0, 0,
    0, 0, 0, 0, 0,
    0, 0, 0, 0, 0,
    0, 0, 0, 0, 0,
    0, 0, 0, 0, 0,
    0, 0, 0, 0, 0,
    0, 0, 0, 0, 0,
    0, 0, 0, 0, 0,
    0, 0, 0, 0, 0,
    0, 0, 0, 0, 0,
    0, 0, 0, 0, 0,

  % k = 4
    0, 0, 0, 0, 0,
    0, 0, 0, 0, 0,
    0, 0, 0, 0, 0,
    0, 0, 0, 0, 0,
    0, 0, 0, 0, 0,
    0, 0, 0, 0, 0,
    0, 0, 0, 0, 0,
    0, 0, 0, 0, 0,
    0, 0, 0, 0, 0,
    0, 0, 0, 0, 0,
    0, 0, 0, 0, 0,
    0, 0, 0, 0, 0,
    0, 0, 0, 0, 0,
    0, 0, 0, 0, 0,
    0, 0, 0, 0, 0,
    0, 0, 0, 0, 0,
    0, 0, 0, 0, 0,
    0, 0, 0, 0, 0,
    0, 0, 0, 0, 0,
    0, 0, 0, 0, 0,
    0, 0, 0, 0, 0,
    0, 0, 0, 0, 0,
    0, 0, 0, 0, 0,
    0, 0, 0, 0, 0,
    0, 0, 0, 0, 0,
    0, 0, 0, 0, 0,
    0, 0, 0, 0, 0,
    0, 0, 0, 0, 0,
    0, 0, 0, 0, 0,
    0, 0, 0, 0, 0,
    0, 0, 0, 0, 0,
    0, 0, 0, 0, 0,
    0, 0, 0, 0, 0,
    0, 0, 0, 0, 0,
    0, 0, 0, 0, 0,
    0, 0, 0, 0, 0,
    0, 0, 0, 0, 0,
    0, 0, 0, 0, 0,
    0, 0, 0, 0, 0,
    0, 0, 0, 0, 0,
    0, 0, 0, 0, 0,
    0, 0, 0, 0, 0,
    0, 0, 0, 0, 0,
    0, 0, 0, 0, 0,
    0, 0, 0, 0, 0,
    0, 0, 0, 0, 0,
    0, 0, 0, 0, 0,
    0, 0, 0, 0, 0,
    0, 0, 0, 0, 0,
    0, 0, 0, 0, 0,
    0, 0, 0, 0, 0,
    0, 0, 0, 0, 0,
    0, 0, 0, 0, 0,
    0, 0, 0, 0, 0,
    0, 0, 0, 0, 0,
    0, 0, 0, 0, 0,
    0, 0, 0, 0, 0,
    0, 0, 0, 0, 0,
    0, 0, 0, 0, 0,
    0, 0, 0, 0, 0,
    0, 0, 0, 0, 0,
    0, 0, 0, 0, 0,
    0, 0, 0, 0, 0,
    0, 0, 0, 0, 0,
    0, 0, 0, 0, 0,
    0, 0, 0, 0, 0,
    0, 0, 0, 0, 0,
    0, 0, 0, 0, 0,
    0, 0, 0, 0, 0,
    0, 0, 0, 0, 0,
    0, 0, 0, 0, 0,
    0, 0, 0, 0, 0,
    0, 0, 0, 0, 0,
    0, 0, 0, 0, 0,
    0, 0, 0, 0, 0,
    0, 0, 0, 0, 0,
    0, 0, 0, 0, 0,
    0, 0, 0, 0, 0,
    0, 0, 0, 0, 0,
    0, 0, 0, 0, 0,
    0, 0, 0, 0, 0,
    0, 0, 0, 0, 0,
    0, 0, 0, 0, 0,
    0, 0, 0, 0, 0,
    0, 0, 0, 0, 0,
    0, 0, 0, 0, 0,
    0, 0, 0, 0, 0,
    0, 0, 0, 0, 0,
    0, 0, 0, 0, 0,
    0, 0, 0, 0, 0,
    0, 0, 0, 0, 0,
    0, 0, 0, 0, 0,
    0, 0, 0, 0, 0,
    0, 0, 0, 0, 0,
    0, 0, 0, 0, 0,
    0, 0, 0, 0, 0,
    0, 0, 0, 0, 0,
    0, 0, 0, 0, 0,
    0, 0, 0, 0, 0,
    0, 0, 0, 0, 0,
    0, 0, 0, 0, 0,
    0, 0, 0, 0, 0,
    0, 0, 0, 0, 0,
    0, 0, 0, 0, 0,
    0, 0, 0, 0, 0,
    0, 0, 0, 0, 0,
    0, 0, 0, 0, 0,
    0, 0, 0, 0, 0,
    0, 0, 0, 0, 0,
    0, 0, 0, 0, 0,
    0, 0, 0, 0, 0,
    0, 0, 0, 0, 0,
    0, 0, 0, 0, 0,
    0, 0, 0, 0, 0,
    0, 0, 0, 0, 0,
    0, 0, 0, 0, 0,
    0, 0, 0, 0, 0,
    0, 0, 0, 0, 0,
    0, 0, 0, 0, 0,
    0, 0, 0, 0, 0,
    0, 0, 0, 0, 0,
    0, 0, 0, 0, 0,
    0, 0, 0, 0, 0,
    0, 0, 0, 0, 0,
    0, 0, 0, 0, 0,
    0, 0, 0, 0, 0,
    0, 0, 0, 0, 0,
    0, 0, 0, 0, 0,
    0, 0, 0, 0, 0,
    0, 0, 0, 0, 0,
    0, 0, 0, 0, 0,
    0, 0, 0, 0, 0,
    0, 0, 0, 0, 0,
    0, 0, 0, 0, 0,
    0, 0, 0, 0, 0,
    0, 0, 0, 0, 0,
    0, 0, 0, 0, 0,
    0, 0, 0, 0, 0,
    0, 0, 0, 0, 0,
    0, 0, 0, 0, 0,
    0, 0, 0, 0, 0,
    0, 0, 0, 0, 0,
    0, 0, 0, 0, 0,
    0, 0, 0, 0, 0,
    0, 0, 0, 0, 0,
    0, 0, 0, 0, 0,
    0, 0, 0, 0, 0,
    0, 0, 0, 0, 0,
    0, 0, 0, 0, 0,
    0, 0, 0, 0, 0,
    0, 0, 0, 0, 0,
    0, 0, 0, 0, 0,
    0, 0, 0, 0, 0,
    0, 0, 0, 0, 0,
    0, 0, 0, 0, 0,
    0, 0, 0, 0, 0,
    0, 0, 0, 0, 0,
    0, 0, 0, 0, 0,
    0, 0, 0, 0, 0,
    0, 0, 0, 0, 0,
    0, 0, 0, 0, 0,
    0, 0, 0, 0, 0,
    0, 0, 0, 0, 0,
    0, 0, 0, 0, 0,
    0, 0, 0, 0, 0,
    0, 0, 0, 0, 0,
    0, 0, 0, 0, 0,
    0, 0, 0, 0, 0,
    0, 0, 0, 0, 0
]);
d_nfa = array3d(1..4, 1..169, 1..5, [
  % k = 1
    {2}, {1}, {1}, {1}, {1},
    {3}, {}, {}, {}, {},
    {}, {4}, {4}, {4}, {4},
    {}, {5}, {5}, {5}, {5},
    {}, {6}, {6}, {6}, {6},
    {}, {7}, {7}, {7}, {7},
    {}, {8}, {8}, {8}, {8},
    {9}, {}, {}, {}, {},
    {10}, {}, {}, {}, {},
    {}, {10}, {10}, {10}, {10},
    {}, {}, {}, {}, {},
    {}, {}, {}, {}, {},
    {}, {}, {}, {}, {},
    {}, {}, {}, {}, {},
    {}, {}, {}, {}, {},
    {}, {}, {}, {}, {},
    {}, {}, {}, {}, {},
    {}, {}, {}, {}, {},
    {}, {}, {}, {}, {},
    {}, {}, {}, {}, {},
    {}, {}, {}, {}, {},
    {}, {}, {}, {}, {},
    {}, {}, {}, {}, {},
    {}, {}, {}, {}, {},
    {}, {}, {}, {}, {},
    {}, {}, {}, {}, {},
    {}, {}, {}, {}, {},
    {}, {}, {}, {}, {},
    {}, {}, {}, {}, {},
    {}, {}, {}, {}, {},
    {}, {}, {}, {}, {},
    {}, {}, {}, {}, {},
    {}, {}, {}, {}, {},
    {}, {}, {}, {}, {},
    {}, {}, {}, {}, {},
    {}, {}, {}, {}, {},
    {}, {}, {}, {}, {},
    {}, {}, {}, {}, {},
    {}, {}, {}, {}, {},
    {}, {}, {}, {}, {},
    {}, {}, {}, {}, {},
    {}, {}, {}, {}, {},
    {}, {}, {}, {}, {},
    {}, {}, {}, {}, {},
    {}, {}, {}, {}, {},
    {}, {}, {}, {}, {},
    {}, {}, {}, {}, {},
    {}, {}, {}, {}, {},
    {}, {}, {}, {}, {},
    {}, {}, {}, {}, {},
    {}, {}, {}, {}, {},
    {}, {}, {}, {}, {},
    {}, {}, {}, {}, {},
    {}, {}, {}, {}, {},
    {}, {}, {}, {}, {},
    {}, {}, {}, {}, {},
    {}, {}, {}, {}, {},
    {}, {}, {}, {}, {},
    {}, {}, {}, {}, {},
    {}, {}, {}, {}, {},
    {}, {}, {}, {}, {},
    {}, {}, {}, {}, {},
    {}, {}, {}, {}, {},
    {}, {}, {}, {}, {},
    {}, {}, {}, {}, {},
    {}, {}, {}, {}, {},
    {}, {}, {}, {}, {},
    {}, {}, {}, {}, {},
    {}, {}, {}, {}, {},
    {}, {}, {}, {}, {},
    {}, {}, {}, {}, {},
    {}, {}, {}, {}, {},
    {}, {}, {}, {}, {},
    {}, {}, {}, {}, {},
    {}, {}, {}, {}, {},
    {}, {}, {}, {}, {},
    {}, {}, {}, {}, {},
    {}, {}, {}, {}, {},
    {}, {}, {}, {}, {},
    {}, {}, {}, {}, {},
    {}, {}, {}, {}, {},
    {}, {}, {}, {}, {},
    {}, {}, {}, {}, {},
    {}, {}, {}, {}, {},
    {}, {}, {}, {}, {},
    {}, {}, {}, {}, {},
    {}, {}, {}, {}, {},
    {}, {}, {}, {}, {},
    {}, {}, {}, {}, {},
    {}, {}, {}, {}, {},
    {}, {}, {}, {}, {},
    {}, {}, {}, {}, {},
    {}, {}, {}, {}, {},
    {}, {}, {}, {}, {},
    {}, {}, {}, {}, {},
    {}, {}, {}, {}, {},
    {}, {}, {}, {}, {},
    {}, {}, {}, {}, {},
    {}, {}, {}, {}, {},
    {}, {}, {}, {}, {},
    {}, {}, {}, {}, {},
    {}, {}, {}, {}, {},
    {}, {}, {}, {}, {},
    {}, {}, {}, {}, {},
    {}, {}, {}, {}, {},
    {}, {}, {}, {}, {},
    {}, {}, {}, {}, {},
    {}, {}, {}, {}, {},
    {}, {}, {}, {}, {},
    {}, {}, {}, {}, {},
    {}, {}, {}, {}, {},
    {}, {}, {}, {}, {},
    {}, {}, {}, {}, {},
    {}, {}, {}, {}, {},
    {}, {}, {}, {}, {},
    {}, {}, {}, {}, {},
    {}, {}, {}, {}, {},
    {}, {}, {}, {}, {},
    {}, {}, {}, {}, {},
    {}, {}, {}, {}, {},
    {}, {}, {}, {}, {},
    {}, {}, {}, {}, {},
    {}, {}, {}, {}, {},
    {}, {}, {}, {}, {},
    {}, {}, {}, {}, {},
    {}, {}, {}, {}, {},
    {}, {}, {}, {}, {},
    {}, {}, {}, {}, {},
    {}, {}, {}, {}, {},
    {}, {}, {}, {}, {},
    {}, {}, {}, {}, {},
    {}, {}, {}, {}, {},
    {}, {}, {}, {}, {},
    {}, {}, {}, {}, {},
    {}, {}, {}, {}, {},
    {}, {}, {}, {}, {},
    {}, {}, {}, {}, {},
    {}, {}, {}, {}, {},
    {}, {}, {}, {}, {},
    {}, {}, {}, {}, {},
    {}, {}, {}, {}, {},
    {}, {}, {}, {}, {},
    {}, {}, {}, {}, {},
    {}, {}, {}, {}, {},
    {}, {}, {}, {}, {},
    {}, {}, {}, {}, {},
    {}, {}, {}, {}, {},
    {}, {}, {}, {}, {},
    {}, {}, {}, {}, {},
    {}, {}, {}, {}, {},
    {}, {}, {}, {}, {},
    {}, {}, {}, {}, {},
    {}, {}, {}, {}, {},
    {}, {}, {}, {}, {},
    {}, {}, {}, {}, {},
    {}, {}, {}, {}, {},
    {}, {}, {}, {}, {},
    {}, {}, {}, {}, {},
    {}, {}, {}, {}, {},
    {}, {}, {}, {}, {},
    {}, {}, {}, {}, {},
    {}, {}, {}, {}, {},
    {}, {}, {}, {}, {},
    {}, {}, {}, {}, {},
    {}, {}, {}, {}, {},
    {}, {}, {}, {}, {},
    {}, {}, {}, {}, {},
    {}, {}, {}, {}, {},
    {}, {}, {}, {}, {},

  % k = 2
    {2, 25, 48, 69, 96, 108, 129, 149}, {3, 26, 49, 70, 97, 109, 130, 150}, {2, 25, 48, 69, 96, 108, 129, 149}, {2, 25, 48, 69, 96, 108, 129, 149}, {2, 25, 48, 69, 96, 108, 129, 149},
    {2}, {3}, {2}, {2}, {2},
    {4}, {}, {4}, {4}, {4},
    {5}, {}, {5}, {5}, {5},
    {}, {6}, {}, {}, {},
    {}, {7}, {}, {}, {},
    {}, {8}, {}, {}, {},
    {}, {9}, {}, {}, {},
    {}, {10}, {}, {}, {},
    {11}, {}, {11}, {11}, {11},
    {12}, {}, {12}, {12}, {12},
    {13}, {}, {13}, {13}, {13},
    {}, {14}, {}, {}, {},
    {}, {15}, {}, {}, {},
    {}, {16}, {}, {}, {},
    {}, {17}, {}, {}, {},
    {18}, {}, {18}, {18}, {18},
    {19}, {}, {19}, {19}, {19},
    {20}, {}, {20}, {20}, {20},
    {}, {21}, {}, {}, {},
    {}, {22}, {}, {}, {},
    {}, {23}, {}, {}, {},
    {}, {24}, {}, {}, {},
    {24}, {}, {24}, {24}, {24},
    {25}, {26}, {25}, {25}, {25},
    {27}, {}, {27}, {27}, {27},
    {28}, {}, {28}, {28}, {28},
    {29}, {}, {29}, {29}, {29},
    {30}, {}, {30}, {30}, {30},
    {}, {31}, {}, {}, {},
    {}, {32}, {}, {}, {},
    {}, {33}, {}, {}, {},
    {34}, {}, {34}, {34}, {34},
    {35}, {}, {35}, {35}, {35},
    {36}, {}, {36}, {36}, {36},
    {37}, {}, {37}, {37}, {37},
    {}, {38}, {}, {}, {},
    {}, {39}, {}, {}, {},
    {}, {40}, {}, {}, {},
    {41}, {}, {41}, {41}, {41},
    {42}, {}, {42}, {42}, {42},
    {43}, {}, {43}, {43}, {43},
    {44}, {}, {44}, {44}, {44},
    {}, {45}, {}, {}, {},
    {}, {46}, {}, {}, {},
    {}, {47}, {}, {}, {},
    {17}, {}, {17}, {17}, {17},
    {48}, {49}, {48}, {48}, {48},
    {}, {50}, {}, {}, {},
    {}, {51}, {}, {}, {},
    {}, {52}, {}, {}, {},
    {53}, {}, {53}, {53}, {53},
    {54}, {}, {54}, {54}, {54},
    {55}, {}, {55}, {55}, {55},
    {}, {56}, {}, {}, {},
    {}, {57}, {}, {}, {},
    {}, {58}, {}, {}, {},
    {}, {59}, {}, {}, {},
    {60}, {}, {60}, {60}, {60},
    {61}, {}, {61}, {61}, {61},
    {62}, {}, {62}, {62}, {62},
    {}, {63}, {}, {}, {},
    {}, {64}, {}, {}, {},
    {}, {65}, {}, {}, {},
    {}, {66}, {}, {}, {},
    {}, {67}, {}, {}, {},
    {68}, {}, {68}, {68}, {68},
    {23}, {}, {23}, {23}, {23},
    {69}, {70}, {69}, {69}, {69},
    {}, {71}, {}, {}, {},
    {}, {72}, {}, {}, {},
    {}, {73}, {}, {}, {},
    {74}, {}, {74}, {74}, {74},
    {75}, {}, {75}, {75}, {75},
    {76}, {}, {76}, {76}, {76},
    {77}, {}, {77}, {77}, {77},
    {}, {78}, {}, {}, {},
    {}, {79}, {}, {}, {},
    {}, {80}, {}, {}, {},
    {81}, {}, {81}, {81}, {81},
    {82}, {}, {82}, {82}, {82},
    {83}, {}, {83}, {83}, {83},
    {84}, {}, {84}, {84}, {84},
    {}, {85}, {}, {}, {},
    {}, {86}, {}, {}, {},
    {}, {87}, {}, {}, {},
    {88}, {}, {88}, {88}, {88},
    {89}, {}, {89}, {89}, {89},
    {90}, {}, {90}, {90}, {90},
    {91}, {}, {91}, {91}, {91},
    {}, {92}, {}, {}, {},
    {}, {93}, {}, {}, {},
    {}, {94}, {}, {}, {},
    {95}, {}, {95}, {95}, {95},
    {67}, {}, {67}, {67}, {67},
    {96}, {97}, {96}, {96}, {96},
    {98}, {}, {98}, {98}, {98},
    {99}, {}, {99}, {99}, {99},
    {100}, {}, {100}, {100}, {100},
    {101}, {}, {101}, {101}, {101},
    {102}, {}, {102}, {102}, {102},
    {103}, {}, {103}, {103}, {103},
    {}, {104}, {}, {}, {},
    {}, {105}, {}, {}, {},
    {}, {106}, {}, {}, {},
    {}, {107}, {}, {}, {},
    {}, {11}, {}, {}, {},
    {108}, {109}, {108}, {108}, {108},
    {110}, {}, {110}, {110}, {110},
    {111}, {}, {111}, {111}, {111},
    {112}, {}, {112}, {112}, {112},
    {113}, {}, {113}, {113}, {113},
    {114}, {}, {114}, {114}, {114},
    {115}, {}, {115}, {115}, {115},
    {}, {116}, {}, {}, {},
    {}, {117}, {}, {}, {},
    {}, {118}, {}, {}, {},
    {119}, {}, {119}, {119}, {119},
    {120}, {}, {120}, {120}, {120},
    {121}, {}, {121}, {121}, {121},
    {122}, {}, {122}, {122}, {122},
    {}, {123}, {}, {}, {},
    {}, {124}, {}, {}, {},
    {}, {125}, {}, {}, {},
    {126}, {}, {126}, {126}, {126},
    {127}, {}, {127}, {127}, {127},
    {128}, {}, {128}, {128}, {128},
    {14}, {}, {14}, {14}, {14},
    {129}, {130}, {129}, {129}, {129},
    {}, {131}, {}, {}, {},
    {}, {132}, {}, {}, {},
    {}, {133}, {}, {}, {},
    {134}, {}, {134}, {134}, {134},
    {135}, {}, {135}, {135}, {135},
    {136}, {}, {136}, {136}, {136},
    {}, {137}, {}, {}, {},
    {}, {138}, {}, {}, {},
    {}, {139}, {}, {}, {},
    {}, {140}, {}, {}, {},
    {141}, {}, {141}, {141}, {141},
    {142}, {}, {142}, {142}, {142},
    {}, {143}, {}, {}, {},
    {}, {144}, {}, {}, {},
    {}, {145}, {}, {}, {},
    {}, {146}, {}, {}, {},
    {}, {147}, {}, {}, {},
    {148}, {}, {148}, {148}, {148},
    {94}, {}, {94}, {94}, {94},
    {149}, {150}, {149}, {149}, {149},
    {}, {151}, {}, {}, {},
    {}, {152}, {}, {}, {},
    {}, {153}, {}, {}, {},
    {154}, {}, {154}, {154}, {154},
    {155}, {}, {155}, {155}, {155},
    {156}, {}, {156}, {156}, {156},
    {}, {157}, {}, {}, {},
    {}, {158}, {}, {}, {},
    {}, {159}, {}, {}, {},
    {160}, {}, {160}, {160}, {160},
    {161}, {}, {161}, {161}, {161},
    {162}, {}, {162}, {162}, {162},
    {163}, {}, {163}, {163}, {163},
    {}, {164}, {}, {}, {},
    {}, {165}, {}, {}, {},
    {}, {166}, {}, {}, {},
    {167}, {}, {167}, {167}, {167},
    {168}, {}, {168}, {168}, {168},
    {169}, {}, {169}, {169}, {169},
    {144}, {}, {144}, {144}, {144},

  % k = 3
    {2, 20, 42, 56, 74, 82, 99, 103}, {2, 20, 42, 56, 74, 82, 99, 103}, {3, 21, 43, 57, 75, 83, 100, 104}, {2, 20, 42, 56, 74, 82, 99, 103}, {2, 20, 42, 56, 74, 82, 99, 103},
    {2}, {2}, {3}, {2}, {2},
    {}, {}, {4}, {}, {},
    {}, {}, {5}, {}, {},
    {}, {}, {6}, {}, {},
    {7}, {7}, {}, {7}, {7},
    {8}, {8}, {}, {8}, {8},
    {9}, {9}, {}, {9}, {9},
    {}, {}, {10}, {}, {},
    {}, {}, {11}, {}, {},
    {}, {}, {12}, {}, {},
    {}, {}, {13}, {}, {},
    {14}, {14}, {}, {14}, {14},
    {15}, {15}, {}, {15}, {15},
    {16}, {16}, {}, {16}, {16},
    {}, {}, {17}, {}, {},
    {}, {}, {18}, {}, {},
    {}, {}, {19}, {}, {},
    {19}, {19}, {}, {19}, {19},
    {20}, {20}, {21}, {20}, {20},
    {}, {}, {22}, {}, {},
    {}, {}, {23}, {}, {},
    {24}, {24}, {}, {24}, {24},
    {25}, {25}, {}, {25}, {25},
    {26}, {26}, {}, {26}, {26},
    {27}, {27}, {}, {27}, {27},
    {}, {}, {28}, {}, {},
    {}, {}, {29}, {}, {},
    {}, {}, {30}, {}, {},
    {31}, {31}, {}, {31}, {31},
    {32}, {32}, {}, {32}, {32},
    {33}, {33}, {}, {33}, {33},
    {34}, {34}, {}, {34}, {34},
    {}, {}, {35}, {}, {},
    {}, {}, {36}, {}, {},
    {}, {}, {37}, {}, {},
    {38}, {38}, {}, {38}, {38},
    {39}, {39}, {}, {39}, {39},
    {40}, {40}, {}, {40}, {40},
    {41}, {41}, {}, {41}, {41},
    {17}, {17}, {}, {17}, {17},
    {42}, {42}, {43}, {42}, {42},
    {}, {}, {44}, {}, {},
    {}, {}, {45}, {}, {},
    {46}, {46}, {}, {46}, {46},
    {47}, {47}, {}, {47}, {47},
    {48}, {48}, {}, {48}, {48},
    {}, {}, {49}, {}, {},
    {}, {}, {50}, {}, {},
    {}, {}, {51}, {}, {},
    {}, {}, {52}, {}, {},
    {53}, {53}, {}, {53}, {53},
    {54}, {54}, {}, {54}, {54},
    {55}, {55}, {}, {55}, {55},
    {}, {}, {16}, {}, {},
    {56}, {56}, {57}, {56}, {56},
    {}, {}, {58}, {}, {},
    {59}, {59}, {}, {59}, {59},
    {60}, {60}, {}, {60}, {60},
    {61}, {61}, {}, {61}, {61},
    {62}, {62}, {}, {62}, {62},
    {63}, {63}, {}, {63}, {63},
    {}, {}, {64}, {}, {},
    {}, {}, {65}, {}, {},
    {}, {}, {66}, {}, {},
    {67}, {67}, {}, {67}, {67},
    {68}, {68}, {}, {68}, {68},
    {69}, {69}, {}, {69}, {69},
    {70}, {70}, {}, {70}, {70},
    {}, {}, {71}, {}, {},
    {}, {}, {72}, {}, {},
    {}, {}, {73}, {}, {},
    {13}, {13}, {}, {13}, {13},
    {74}, {74}, {75}, {74}, {74},
    {}, {}, {76}, {}, {},
    {}, {}, {77}, {}, {},
    {}, {}, {78}, {}, {},
    {79}, {79}, {}, {79}, {79},
    {80}, {80}, {}, {80}, {80},
    {81}, {81}, {}, {81}, {81},
    {}, {}, {70}, {}, {},
    {82}, {82}, {83}, {82}, {82},
    {}, {}, {84}, {}, {},
    {}, {}, {85}, {}, {},
    {86}, {86}, {}, {86}, {86},
    {87}, {87}, {}, {87}, {87},
    {88}, {88}, {}, {88}, {88},
    {89}, {89}, {}, {89}, {89},
    {}, {}, {90}, {}, {},
    {}, {}, {91}, {}, {},
    {}, {}, {92}, {}, {},
    {93}, {93}, {}, {93}, {93},
    {94}, {94}, {}, {94}, {94},
    {95}, {95}, {}, {95}, {95},
    {96}, {96}, {}, {96}, {96},
    {}, {}, {97}, {}, {},
    {}, {}, {98}, {}, {},
    {}, {}, {38}, {}, {},
    {99}, {99}, {100}, {99}, {99},
    {}, {}, {101}, {}, {},
    {}, {}, {102}, {}, {},
    {45}, {45}, {}, {45}, {45},
    {103}, {103}, {104}, {103}, {103},
    {}, {}, {59}, {}, {},
    {}, {}, {}, {}, {},
    {}, {}, {}, {}, {},
    {}, {}, {}, {}, {},
    {}, {}, {}, {}, {},
    {}, {}, {}, {}, {},
    {}, {}, {}, {}, {},
    {}, {}, {}, {}, {},
    {}, {}, {}, {}, {},
    {}, {}, {}, {}, {},
    {}, {}, {}, {}, {},
    {}, {}, {}, {}, {},
    {}, {}, {}, {}, {},
    {}, {}, {}, {}, {},
    {}, {}, {}, {}, {},
    {}, {}, {}, {}, {},
    {}, {}, {}, {}, {},
    {}, {}, {}, {}, {},
    {}, {}, {}, {}, {},
    {}, {}, {}, {}, {},
    {}, {}, {}, {}, {},
    {}, {}, {}, {}, {},
    {}, {}, {}, {}, {},
    {}, {}, {}, {}, {},
    {}, {}, {}, {}, {},
    {}, {}, {}, {}, {},
    {}, {}, {}, {}, {},
    {}, {}, {}, {}, {},
    {}, {}, {}, {}, {},
    {}, {}, {}, {}, {},
    {}, {}, {}, {}, {},
    {}, {}, {}, {}, {},
    {}, {}, {}, {}, {},
    {}, {}, {}, {}, {},
    {}, {}, {}, {}, {},
    {}, {}, {}, {}, {},
    {}, {}, {}, {}, {},
    {}, {}, {}, {}, {},
    {}, {}, {}, {}, {},
    {}, {}, {}, {}, {},
    {}, {}, {}, {}, {},
    {}, {}, {}, {}, {},
    {}, {}, {}, {}, {},
    {}, {}, {}, {}, {},
    {}, {}, {}, {}, {},
    {}, {}, {}, {}, {},
    {}, {}, {}, {}, {},
    {}, {}, {}, {}, {},
    {}, {}, {}, {}, {},
    {}, {}, {}, {}, {},
    {}, {}, {}, {}, {},
    {}, {}, {}, {}, {},
    {}, {}, {}, {}, {},
    {}, {}, {}, {}, {},
    {}, {}, {}, {}, {},
    {}, {}, {}, {}, {},
    {}, {}, {}, {}, {},
    {}, {}, {}, {}, {},
    {}, {}, {}, {}, {},
    {}, {}, {}, {}, {},
    {}, {}, {}, {}, {},
    {}, {}, {}, {}, {},
    {}, {}, {}, {}, {},
    {}, {}, {}, {}, {},
    {}, {}, {}, {}, {},
    {}, {}, {}, {}, {},

  % k = 4
    {2, 25, 35, 55, 63, 80, 84, 86}, {2, 25, 35, 55, 63, 80, 84, 86}, {2, 25, 35, 55, 63, 80, 84, 86}, {3, 26, 36, 56, 64, 81, 85, 87}, {2, 25, 35, 55, 63, 80, 84, 86},
    {2}, {2}, {2}, {3}, {2},
    {}, {}, {}, {4}, {},
    {5}, {5}, {5}, {}, {5},
    {6}, {6}, {6}, {}, {6},
    {7}, {7}, {7}, {}, {7},
    {8}, {8}, {8}, {}, {8},
    {9}, {9}, {9}, {}, {9},
    {}, {}, {}, {10}, {},
    {}, {}, {}, {11}, {},
    {12}, {12}, {12}, {}, {12},
    {13}, {13}, {13}, {}, {13},
    {14}, {14}, {14}, {}, {14},
    {15}, {15}, {15}, {}, {15},
    {16}, {16}, {16}, {}, {16},
    {}, {}, {}, {17}, {},
    {}, {}, {}, {18}, {},
    {19}, {19}, {19}, {}, {19},
    {20}, {20}, {20}, {}, {20},
    {21}, {21}, {21}, {}, {21},
    {22}, {22}, {22}, {}, {22},
    {23}, {23}, {23}, {}, {23},
    {}, {}, {}, {24}, {},
    {24}, {24}, {24}, {}, {24},
    {25}, {25}, {25}, {26}, {25},
    {}, {}, {}, {27}, {},
    {}, {}, {}, {28}, {},
    {}, {}, {}, {29}, {},
    {30}, {30}, {30}, {}, {30},
    {31}, {31}, {31}, {}, {31},
    {32}, {32}, {32}, {}, {32},
    {33}, {33}, {33}, {}, {33},
    {}, {}, {}, {34}, {},
    {}, {}, {}, {23}, {},
    {35}, {35}, {35}, {36}, {35},
    {37}, {37}, {37}, {}, {37},
    {38}, {38}, {38}, {}, {38},
    {39}, {39}, {39}, {}, {39},
    {40}, {40}, {40}, {}, {40},
    {41}, {41}, {41}, {}, {41},
    {}, {}, {}, {42}, {},
    {}, {}, {}, {43}, {},
    {44}, {44}, {44}, {}, {44},
    {45}, {45}, {45}, {}, {45},
    {46}, {46}, {46}, {}, {46},
    {47}, {47}, {47}, {}, {47},
    {48}, {48}, {48}, {}, {48},
    {}, {}, {}, {49}, {},
    {}, {}, {}, {50}, {},
    {51}, {51}, {51}, {}, {51},
    {52}, {52}, {52}, {}, {52},
    {53}, {53}, {53}, {}, {53},
    {54}, {54}, {54}, {}, {54},
    {34}, {34}, {34}, {}, {34},
    {55}, {55}, {55}, {56}, {55},
    {}, {}, {}, {57}, {},
    {}, {}, {}, {58}, {},
    {59}, {59}, {59}, {}, {59},
    {60}, {60}, {60}, {}, {60},
    {61}, {61}, {61}, {}, {61},
    {62}, {62}, {62}, {}, {62},
    {}, {}, {}, {33}, {},
    {63}, {63}, {63}, {64}, {63},
    {}, {}, {}, {65}, {},
    {66}, {66}, {66}, {}, {66},
    {67}, {67}, {67}, {}, {67},
    {68}, {68}, {68}, {}, {68},
    {69}, {69}, {69}, {}, {69},
    {70}, {70}, {70}, {}, {70},
    {}, {}, {}, {71}, {},
    {}, {}, {}, {72}, {},
    {73}, {73}, {73}, {}, {73},
    {74}, {74}, {74}, {}, {74},
    {75}, {75}, {75}, {}, {75},
    {76}, {76}, {76}, {}, {76},
    {77}, {77}, {77}, {}, {77},
    {}, {}, {}, {78}, {},
    {}, {}, {}, {79}, {},
    {18}, {18}, {18}, {}, {18},
    {80}, {80}, {80}, {81}, {80},
    {}, {}, {}, {82}, {},
    {}, {}, {}, {83}, {},
    {}, {}, {}, {30}, {},
    {84}, {84}, {84}, {85}, {84},
    {36}, {36}, {36}, {}, {36},
    {86}, {86}, {86}, {87}, {86},
    {}, {}, {}, {88}, {},
    {}, {}, {}, {59}, {},
    {}, {}, {}, {}, {},
    {}, {}, {}, {}, {},
    {}, {}, {}, {}, {},
    {}, {}, {}, {}, {},
    {}, {}, {}, {}, {},
    {}, {}, {}, {}, {},
    {}, {}, {}, {}, {},
    {}, {}, {}, {}, {},
    {}, {}, {}, {}, {},
    {}, {}, {}, {}, {},
    {}, {}, {}, {}, {},
    {}, {}, {}, {}, {},
    {}, {}, {}, {}, {},
    {}, {}, {}, {}, {},
    {}, {}, {}, {}, {},
    {}, {}, {}, {}, {},
    {}, {}, {}, {}, {},
    {}, {}, {}, {}, {},
    {}, {}, {}, {}, {},
    {}, {}, {}, {}, {},
    {}, {}, {}, {}, {},
    {}, {}, {}, {}, {},
    {}, {}, {}, {}, {},
    {}, {}, {}, {}, {},
    {}, {}, {}, {}, {},
    {}, {}, {}, {}, {},
    {}, {}, {}, {}, {},
    {}, {}, {}, {}, {},
    {}, {}, {}, {}, {},
    {}, {}, {}, {}, {},
    {}, {}, {}, {}, {},
    {}, {}, {}, {}, {},
    {}, {}, {}, {}, {},
    {}, {}, {}, {}, {},
    {}, {}, {}, {}, {},
    {}, {}, {}, {}, {},
    {}, {}, {}, {}, {},
    {}, {}, {}, {}, {},
    {}, {}, {}, {}, {},
    {}, {}, {}, {}, {},
    {}, {}, {}, {}, {},
    {}, {}, {}, {}, {},
    {}, {}, {}, {}, {},
    {}, {}, {}, {}, {},
    {}, {}, {}, {}, {},
    {}, {}, {}, {}, {},
    {}, {}, {}, {}, {},
    {}, {}, {}, {}, {},
    {}, {}, {}, {}, {},
    {}, {}, {}, {}, {},
    {}, {}, {}, {}, {},
    {}, {}, {}, {}, {},
    {}, {}, {}, {}, {},
    {}, {}, {}, {}, {},
    {}, {}, {}, {}, {},
    {}, {}, {}, {}, {},
    {}, {}, {}, {}, {},
    {}, {}, {}, {}, {},
    {}, {}, {}, {}, {},
    {}, {}, {}, {}, {},
    {}, {}, {}, {}, {},
    {}, {}, {}, {}, {},
    {}, {}, {}, {}, {},
    {}, {}, {}, {}, {},
    {}, {}, {}, {}, {},
    {}, {}, {}, {}, {},
    {}, {}, {}, {}, {},
    {}, {}, {}, {}, {},
    {}, {}, {}, {}, {},
    {}, {}, {}, {}, {},
    {}, {}, {}, {}, {},
    {}, {}, {}, {}, {},
    {}, {}, {}, {}, {},
    {}, {}, {}, {}, {},
    {}, {}, {}, {}, {},
    {}, {}, {}, {}, {},
    {}, {}, {}, {}, {},
    {}, {}, {}, {}, {},
    {}, {}, {}, {}, {},
    {}, {}, {}, {}, {},
    {}, {}, {}, {}, {}
]);
